SDVRP instances/custom_instances/p04_22_splitx10_0.vrp
NAME:p04_22_splitx10_
BEST_KNOWN: 0
COMMENT: 0
DIMENSION: 695
CAPACITY: 2000
EDGE_WEIGHT_FORMAT: FUNCTION
EDGE_WEIGHT_TYPE: EXACT_2D
NODE_COORD_SECTION
1 0.00000 0.00000
2 -17 6
3 -17 6
4 -17 6
5 -17 6
6 47 26
7 47 26
8 47 26
9 47 26
10 47 26
11 15 47
12 15 47
13 15 47
14 15 47
15 15 47
16 -37 -50
17 -37 -50
18 -37 -50
19 17 -29
20 17 -29
21 2 40
22 2 40
23 2 40
24 2 40
25 2 40
26 2 40
27 -22 -29
28 -22 -29
29 -22 -29
30 -22 -29
31 -32 -48
32 -32 -48
33 -32 -48
34 38 -12
35 38 -12
36 38 -12
37 38 -12
38 38 -12
39 38 -12
40 38 -12
41 38 -12
42 43 -25
43 43 -25
44 43 -25
45 43 -25
46 43 -25
47 9 -10
48 9 -10
49 9 -10
50 9 -10
51 48 44
52 48 44
53 48 44
54 -43 44
55 -43 44
56 -43 44
57 -2 -35
58 -2 -35
59 -2 -35
60 -2 -35
61 -2 -35
62 6 43
63 6 43
64 6 43
65 6 43
66 6 43
67 -39 1
68 -39 1
69 -39 1
70 -39 1
71 -39 1
72 44 -32
73 44 -32
74 44 -32
75 -6 25
76 -6 25
77 -6 25
78 -6 25
79 -6 25
80 -6 25
81 -6 25
82 -47 28
83 -47 28
84 -47 28
85 -47 28
86 -47 28
87 -47 28
88 -47 39
89 -47 39
90 -47 39
91 -47 39
92 -47 39
93 -47 39
94 -47 39
95 -16 25
96 -16 25
97 -16 25
98 -16 25
99 -16 25
100 -16 25
101 -26 27
102 -26 27
103 22 -20
104 22 -20
105 22 -20
106 22 -20
107 22 -20
108 22 -20
109 22 -20
110 -42 -23
111 -42 -23
112 -21 -18
113 -21 -18
114 -21 -18
115 -21 -18
116 -21 -18
117 -21 -18
118 4 50
119 4 50
120 4 50
121 17 -1
122 17 -1
123 17 -1
124 17 -1
125 17 -1
126 -9 13
127 -9 13
128 -9 13
129 6 28
130 6 28
131 6 28
132 6 28
133 10 3
134 10 3
135 10 3
136 10 3
137 10 3
138 10 3
139 -29 -19
140 -29 -19
141 -29 -19
142 -29 -19
143 3 -37
144 3 -37
145 3 -37
146 3 -37
147 3 -37
148 -36 50
149 -36 50
150 -36 50
151 -36 50
152 -36 50
153 -36 50
154 -36 50
155 -36 50
156 -25 6
157 -25 6
158 30 -15
159 30 -15
160 30 -15
161 30 -15
162 30 -15
163 30 -15
164 44 31
165 44 31
166 44 31
167 3 46
168 3 46
169 3 46
170 3 46
171 3 46
172 3 46
173 3 46
174 19 -45
175 19 -45
176 19 -45
177 19 -45
178 27 21
179 27 21
180 27 21
181 27 21
182 27 21
183 27 21
184 -29 -8
185 -29 -8
186 -29 -8
187 -29 -8
188 -29 -8
189 27 -44
190 27 -44
191 27 -44
192 27 -44
193 21 4
194 21 4
195 21 4
196 32 49
197 32 49
198 32 49
199 32 49
200 32 49
201 -31 -8
202 -31 -8
203 -31 -8
204 -31 -8
205 39 -41
206 39 -41
207 39 -41
208 39 -41
209 39 -41
210 -41 26
211 -41 26
212 -41 26
213 -41 26
214 -41 26
215 -41 26
216 46 -24
217 46 -24
218 46 -24
219 46 -24
220 46 -24
221 46 -24
222 -42 -18
223 -42 -18
224 -42 -18
225 -42 -18
226 -42 -18
227 -11 -50
228 -11 -50
229 -11 -50
230 -11 -50
231 29 -2
232 29 -2
233 29 -2
234 26 43
235 26 43
236 26 43
237 26 43
238 26 43
239 26 43
240 26 43
241 0 -3
242 0 -3
243 0 -3
244 0 -3
245 0 -3
246 4 -16
247 4 -16
248 4 -16
249 30 41
250 30 41
251 30 41
252 30 41
253 30 41
254 30 41
255 30 41
256 -49 -22
257 -49 -22
258 -49 -22
259 -49 -22
260 -49 -22
261 7 -36
262 7 -36
263 7 -36
264 7 -36
265 7 -36
266 7 -36
267 -43 -43
268 -43 -43
269 -43 -43
270 -43 -43
271 -43 -43
272 -43 -43
273 -7 22
274 -7 22
275 -7 22
276 -7 22
277 -7 22
278 38 8
279 38 8
280 38 8
281 11 22
282 11 22
283 11 22
284 11 22
285 29 -4
286 29 -4
287 29 -4
288 29 -4
289 10 44
290 10 44
291 10 44
292 10 44
293 10 44
294 10 44
295 45 -47
296 45 -47
297 19 48
298 19 48
299 19 48
300 19 48
301 -10 -47
302 -10 -47
303 -10 -47
304 -10 -47
305 -10 -47
306 40 12
307 40 12
308 40 12
309 40 12
310 40 12
311 38 -37
312 38 -37
313 38 -37
314 -30 -17
315 -30 -17
316 -30 -17
317 -30 -17
318 -30 -17
319 -30 -17
320 9 -14
321 9 -14
322 -19 20
323 -19 20
324 -19 20
325 -19 20
326 -19 20
327 30 36
328 30 36
329 30 36
330 30 36
331 30 36
332 30 36
333 -11 3
334 -11 3
335 -11 3
336 -11 3
337 -11 3
338 -11 3
339 21 26
340 21 26
341 21 26
342 21 26
343 21 26
344 21 26
345 -35 46
346 -35 46
347 48 -30
348 48 -30
349 48 -30
350 48 -30
351 48 -30
352 30 -15
353 30 -15
354 30 -15
355 30 -15
356 32 22
357 32 22
358 32 22
359 32 22
360 -39 15
361 -39 15
362 -39 15
363 -39 15
364 -39 15
365 -39 15
366 -24 21
367 -24 21
368 -24 21
369 -24 21
370 -24 21
371 24 33
372 24 33
373 24 33
374 24 33
375 24 33
376 24 33
377 -14 13
378 -14 13
379 -14 13
380 -14 13
381 -14 13
382 -14 13
383 -23 4
384 -23 4
385 -23 4
386 -23 4
387 -23 4
388 -23 4
389 -23 4
390 -23 4
391 18 -13
392 18 -13
393 18 -13
394 18 -13
395 18 -13
396 18 -13
397 -33 -4
398 -33 -4
399 -33 -4
400 9 8
401 9 8
402 9 8
403 9 8
404 -26 -8
405 -26 -8
406 -26 -8
407 -9 30
408 -9 30
409 -9 30
410 -9 30
411 -9 30
412 -9 30
413 22 -42
414 22 -42
415 22 -42
416 14 34
417 14 34
418 14 34
419 14 34
420 14 34
421 14 34
422 14 34
423 10 30
424 10 30
425 10 30
426 10 30
427 10 30
428 10 30
429 10 30
430 -17 -8
431 -17 -8
432 -17 -8
433 -17 -8
434 -17 -8
435 -17 10
436 -17 10
437 -17 10
438 -17 10
439 -17 10
440 -28 -49
441 -28 -49
442 -28 -49
443 -28 -49
444 -28 -49
445 -28 -49
446 31 -45
447 31 -45
448 31 -45
449 31 -45
450 31 -45
451 -49 -32
452 -49 -32
453 -49 -32
454 -37 29
455 -37 29
456 -37 29
457 -15 -47
458 -15 -47
459 -15 -47
460 -15 -47
461 -15 -47
462 -15 -47
463 45 0
464 45 0
465 45 0
466 39 -10
467 39 -10
468 45 40
469 45 40
470 45 40
471 46 -34
472 46 -34
473 46 -34
474 -31 34
475 -31 34
476 -31 34
477 -31 34
478 -31 34
479 7 -49
480 7 -49
481 7 -49
482 7 -49
483 7 -49
484 7 -49
485 7 -49
486 39 43
487 39 43
488 -37 34
489 -37 34
490 -37 34
491 -37 34
492 -39 18
493 -39 18
494 -39 18
495 -39 18
496 -39 18
497 34 -38
498 34 -38
499 34 -38
500 34 -38
501 34 -38
502 46 -37
503 46 -37
504 46 -37
505 46 -37
506 46 -37
507 -24 -34
508 -24 -34
509 -24 -34
510 -24 -34
511 -24 -34
512 -24 -34
513 -44 -36
514 -44 -36
515 -44 -36
516 -44 -36
517 -44 -36
518 -44 -36
519 4 -18
520 4 -18
521 4 -18
522 4 -18
523 3 -20
524 3 -20
525 27 -48
526 27 -48
527 27 -48
528 27 -48
529 27 -48
530 27 -48
531 24 -12
532 24 -12
533 24 -12
534 24 -12
535 24 -12
536 24 -12
537 32 14
538 32 14
539 32 14
540 32 14
541 47 7
542 47 7
543 47 7
544 47 7
545 -44 25
546 -44 25
547 -18 46
548 -18 46
549 -18 46
550 -18 46
551 -18 46
552 -18 46
553 -37 -14
554 -37 -14
555 -37 -14
556 -37 -14
557 -37 -14
558 -37 -14
559 -24 -41
560 -24 -41
561 -24 -41
562 -24 -41
563 -24 -41
564 -29 24
565 -29 24
566 -29 24
567 -29 24
568 -29 24
569 -29 24
570 -29 24
571 -4 -35
572 -4 -35
573 -4 -35
574 -4 -35
575 -4 -35
576 -8 -18
577 -8 -18
578 -8 -18
579 -8 -18
580 -8 -18
581 -8 -18
582 -42 13
583 -42 13
584 -42 13
585 -42 13
586 29 -2
587 29 -2
588 29 -2
589 29 -2
590 29 -2
591 29 -2
592 49 -30
593 49 -30
594 49 -30
595 -48 -6
596 -48 -6
597 -48 -6
598 -48 -6
599 -27 -50
600 -27 -50
601 -27 -50
602 -27 -50
603 -27 -50
604 14 -18
605 14 -18
606 14 -18
607 14 -18
608 -5 -42
609 -5 -42
610 -5 6
611 -5 6
612 -5 6
613 -33 -4
614 -33 -4
615 -33 -4
616 -33 -4
617 -33 -4
618 46 -21
619 5 10
620 5 10
621 5 10
622 5 10
623 -50 -20
624 -50 -20
625 -50 -20
626 -50 -20
627 -49 -39
628 -49 -39
629 -49 -39
630 -49 -39
631 20 -8
632 20 -8
633 20 -8
634 20 -8
635 20 -8
636 20 -8
637 -25 -29
638 -25 -29
639 -25 -29
640 -25 -29
641 -25 -29
642 -25 -29
643 -25 -29
644 5 4
645 5 4
646 -20 9
647 -20 9
648 -20 9
649 -20 9
650 2 3
651 2 3
652 2 3
653 2 3
654 2 3
655 2 3
656 2 3
657 47 -14
658 47 -14
659 47 -14
660 45 2
661 45 2
662 45 2
663 45 2
664 14 19
665 14 19
666 -3 -47
667 -3 -47
668 -3 -47
669 -48 -34
670 -48 -34
671 -48 -34
672 38 20
673 38 20
674 38 20
675 38 20
676 38 20
677 38 20
678 8 -23
679 8 -23
680 8 -23
681 8 -23
682 8 -23
683 8 -23
684 -11 29
685 -11 29
686 -11 29
687 -11 29
688 -11 29
689 -11 29
690 -16 48
691 -16 48
692 -16 48
693 -16 48
694 -16 48
695 -16 48
DEMAND_SECTION
1 0
2 200
3 20
4 20
5 10
6 400
7 20
8 20
9 20
10 10
11 400
12 20
13 20
14 20
15 20
16 400
17 400
18 200
19 400
20 200
21 400
22 100
23 20
24 20
25 20
26 20
27 200
28 100
29 20
30 20
31 400
32 20
33 10
34 400
35 400
36 100
37 20
38 20
39 20
40 20
41 10
42 400
43 100
44 20
45 20
46 10
47 400
48 200
49 20
50 10
51 400
52 200
53 20
54 400
55 200
56 20
57 400
58 400
59 100
60 20
61 20
62 200
63 100
64 20
65 20
66 20
67 400
68 20
69 20
70 20
71 10
72 400
73 400
74 100
75 400
76 100
77 20
78 20
79 20
80 20
81 10
82 400
83 200
84 20
85 20
86 20
87 20
88 200
89 100
90 20
91 20
92 20
93 20
94 10
95 400
96 400
97 20
98 20
99 20
100 10
101 400
102 400
103 400
104 400
105 20
106 20
107 20
108 20
109 10
110 400
111 200
112 400
113 100
114 20
115 20
116 20
117 10
118 400
119 100
120 20
121 400
122 400
123 100
124 20
125 10
126 400
127 200
128 10
129 200
130 20
131 20
132 20
133 200
134 20
135 20
136 20
137 20
138 10
139 400
140 200
141 20
142 20
143 400
144 200
145 100
146 20
147 20
148 400
149 400
150 100
151 20
152 20
153 20
154 20
155 10
156 400
157 20
158 400
159 400
160 20
161 20
162 20
163 20
164 400
165 400
166 200
167 400
168 200
169 100
170 20
171 20
172 20
173 10
174 400
175 100
176 20
177 10
178 400
179 400
180 100
181 20
182 20
183 10
184 400
185 400
186 20
187 20
188 20
189 200
190 20
191 20
192 20
193 400
194 400
195 10
196 200
197 20
198 20
199 20
200 20
201 400
202 400
203 100
204 20
205 200
206 20
207 20
208 20
209 20
210 400
211 20
212 20
213 20
214 20
215 10
216 400
217 400
218 20
219 20
220 20
221 10
222 400
223 400
224 20
225 20
226 20
227 400
228 200
229 100
230 20
231 400
232 200
233 10
234 200
235 100
236 20
237 20
238 20
239 20
240 10
241 400
242 400
243 20
244 20
245 20
246 400
247 200
248 100
249 400
250 400
251 20
252 20
253 20
254 20
255 10
256 200
257 20
258 20
259 20
260 10
261 400
262 200
263 100
264 20
265 20
266 20
267 400
268 400
269 20
270 20
271 20
272 10
273 400
274 200
275 100
276 20
277 20
278 400
279 400
280 100
281 400
282 100
283 20
284 10
285 400
286 400
287 100
288 10
289 400
290 400
291 20
292 20
293 20
294 20
295 400
296 200
297 400
298 400
299 20
300 10
301 400
302 200
303 20
304 20
305 10
306 400
307 100
308 20
309 20
310 10
311 400
312 400
313 200
314 400
315 200
316 100
317 20
318 20
319 20
320 400
321 200
322 400
323 400
324 20
325 20
326 20
327 400
328 400
329 100
330 20
331 20
332 10
333 400
334 20
335 20
336 20
337 20
338 10
339 400
340 200
341 100
342 20
343 20
344 20
345 400
346 20
347 400
348 200
349 100
350 20
351 20
352 400
353 20
354 20
355 20
356 400
357 200
358 100
359 10
360 400
361 20
362 20
363 20
364 20
365 10
366 400
367 400
368 20
369 20
370 10
371 400
372 100
373 20
374 20
375 20
376 10
377 400
378 200
379 100
380 20
381 20
382 10
383 400
384 200
385 100
386 20
387 20
388 20
389 20
390 10
391 400
392 200
393 100
394 20
395 20
396 10
397 400
398 400
399 200
400 400
401 200
402 100
403 20
404 400
405 100
406 10
407 400
408 100
409 20
410 20
411 20
412 10
413 200
414 100
415 10
416 400
417 400
418 100
419 20
420 20
421 20
422 20
423 400
424 200
425 100
426 20
427 20
428 20
429 10
430 400
431 400
432 100
433 20
434 10
435 400
436 400
437 100
438 20
439 20
440 400
441 400
442 20
443 20
444 20
445 10
446 400
447 20
448 20
449 20
450 10
451 400
452 400
453 10
454 200
455 100
456 10
457 400
458 100
459 20
460 20
461 20
462 10
463 400
464 100
465 10
466 200
467 100
468 400
469 100
470 20
471 400
472 100
473 10
474 400
475 400
476 20
477 20
478 20
479 400
480 200
481 100
482 20
483 20
484 20
485 10
486 400
487 100
488 400
489 100
490 20
491 20
492 400
493 20
494 20
495 20
496 10
497 400
498 400
499 20
500 20
501 20
502 400
503 400
504 100
505 20
506 10
507 400
508 400
509 20
510 20
511 20
512 10
513 400
514 400
515 20
516 20
517 20
518 10
519 400
520 200
521 20
522 20
523 400
524 200
525 200
526 100
527 20
528 20
529 20
530 20
531 200
532 100
533 20
534 20
535 20
536 20
537 200
538 20
539 20
540 10
541 400
542 20
543 20
544 20
545 400
546 200
547 200
548 20
549 20
550 20
551 20
552 10
553 400
554 20
555 20
556 20
557 20
558 10
559 200
560 20
561 20
562 20
563 10
564 400
565 200
566 100
567 20
568 20
569 20
570 20
571 200
572 20
573 20
574 20
575 20
576 400
577 200
578 100
579 20
580 20
581 20
582 200
583 100
584 20
585 20
586 200
587 100
588 20
589 20
590 20
591 10
592 400
593 20
594 20
595 200
596 100
597 20
598 20
599 400
600 400
601 100
602 20
603 10
604 200
605 100
606 20
607 20
608 400
609 200
610 400
611 20
612 20
613 200
614 20
615 20
616 20
617 20
618 400
619 400
620 100
621 20
622 10
623 400
624 400
625 20
626 20
627 200
628 100
629 20
630 20
631 400
632 400
633 100
634 20
635 20
636 10
637 400
638 400
639 20
640 20
641 20
642 20
643 10
644 200
645 100
646 400
647 200
648 100
649 10
650 400
651 200
652 100
653 20
654 20
655 20
656 20
657 400
658 100
659 10
660 400
661 400
662 100
663 20
664 400
665 200
666 400
667 400
668 100
669 200
670 100
671 10
672 400
673 20
674 20
675 20
676 20
677 10
678 400
679 200
680 20
681 20
682 20
683 20
684 400
685 200
686 20
687 20
688 20
689 10
690 400
691 400
692 100
693 20
694 20
695 20
DEPOT_SECTION
1
-1
EOF