SDVRP instances/custom_instances/p04_22_splitx10_0.sol
694 -19 18 103 105 107 104 106 102 108 392 390 -21 23 22 24 25 20 172 166 170 168 169 167 171 118 117 119 63 62 -29 26 28 27 16 17 15 31 30 32 558 561 -39 36 38 34 35 37 33 40 466 284 286 287 285 -41 44 592 591 593 349 350 348 347 346 72 -45 42 43 472 503 504 502 501 505 294 295 204 208 205 206 207 -46 319 320 606 605 603 604 677 682 678 -48 49 47 630 634 633 631 635 632 121 120 123 -57 59 667 665 666 607 608 -61 64 65 12 14 10 13 11 296 298 297 299 234 233 237 236 239 238 235 -71 73 471 470 310 311 312 -74 80 408 411 410 685 688 684 687 686 683 99 98 95 97 96 94 -110 109 626 629 627 628 267 266 268 269 270 271 -112 114 116 140 138 139 141 313 318 316 317 314 315 403 -122 124 588 590 589 587 232 586 230 231 585 194 192 193 135 133 134 137 -130 129 131 128 427 422 423 425 281 280 619 618 621 620 -136 132 356 357 355 358 182 180 181 178 177 179 401 -148 149 151 150 153 147 154 152 345 344 487 489 488 490 -186 556 553 557 554 555 552 596 594 597 595 398 396 397 616 614 615 613 -189 191 188 190 525 526 524 527 528 529 447 446 448 445 449 496 497 499 498 500 -202 203 201 200 184 187 183 185 404 405 433 431 432 -210 209 211 214 212 213 544 545 81 86 84 85 83 82 455 453 -220 216 218 215 219 217 617 657 658 656 465 -225 221 222 223 224 259 257 256 258 255 622 623 624 625 -243 242 244 241 240 643 644 650 655 654 649 653 651 652 -246 247 245 520 521 519 518 522 523 -260 264 265 144 143 145 142 146 60 58 56 572 571 573 570 574 -261 263 262 480 478 482 484 481 479 483 176 174 173 175 412 413 414 680 681 679 -272 273 274 323 325 324 322 366 365 367 368 -276 275 78 75 77 79 76 407 406 409 694 689 693 692 690 691 546 551 549 548 550 547 -277 278 305 307 308 309 306 671 675 674 676 536 -279 540 541 543 542 659 660 662 661 464 462 463 -282 283 197 195 196 198 199 486 485 52 50 51 468 467 469 -301 300 302 303 304 226 227 228 229 456 457 458 461 459 460 -321 100 101 564 563 569 565 567 566 568 369 -326 329 163 164 165 7 8 6 9 5 673 672 537 538 539 -331 328 327 330 254 251 253 249 248 250 252 371 372 373 370 375 374 -332 334 333 337 336 335 3 1 4 2 156 155 383 387 385 382 384 386 389 388 -381 379 376 378 380 377 125 127 126 611 610 609 -395 394 391 393 160 352 159 162 353 157 351 158 354 161 531 533 532 534 530 535 -399 400 402 339 341 338 342 343 340 664 663 -419 418 416 415 420 417 421 290 292 291 289 288 293 428 426 424 -430 429 113 115 111 580 578 575 577 576 579 -437 435 438 436 434 645 648 647 646 -450 451 452 668 670 669 516 515 513 514 517 512 -454 90 89 91 93 88 92 87 53 55 54 476 477 475 474 473 -495 491 492 493 494 361 362 363 359 364 360 581 582 584 583 66 68 69 70 67 612 -507 509 508 510 511 506 641 637 642 636 640 639 638 -562 559 560 442 440 444 441 439 443 600 602 601 598 599 0 





OBJ=
4467.091
BEST_KNOWN=
0.000